53
1 0 4
2 1 6
3 0 1
3 2 6
4 1 7
5 0 2
5 1 1
5 3 1
6 0 5
6 2 3
6 5 5
7 0 4
7 4 6
8 1 1
8 4 6
8 6 3
8 7 4
9 1 7
9 3 6
9 7 5
10 0 5
10 1 1
10 5 1
10 7 2
10 8 3
10 9 5
11 3 4
11 5 2
11 7 2
12 0 8
12 1 7
12 2 5
12 3 1
12 4 3
12 5 5
12 6 7
12 7 7
12 9 2
12 10 7
13 2 7
13 3 2
13 4 5
13 6 7
13 7 2
13 10 8
13 11 1
13 12 4
14 1 2
14 3 2
14 5 3
14 7 3
14 8 4
14 10 1
14 11 5
15 0 2
15 4 2
15 5 8
15 6 5
15 9 3
15 10 3
15 12 5
15 14 3
16 0 8
16 3 1
16 8 6
16 9 3
16 11 2
16 12 2
16 13 4
16 15 2
17 0 2
17 1 3
17 2 6
17 5 8
17 6 3
17 8 2
17 9 3
17 13 1
18 0 3
18 4 7
18 5 6
18 7 5
18 9 8
18 11 5
18 13 8
18 14 7
18 16 6
18 17 4
19 2 6
19 4 8
19 6 3
19 7 3
19 8 8
19 9 7
19 14 8
20 1 4
20 8 4
20 11 8
20 12 3
20 13 1
20 16 5
21 1 3
21 3 4
21 7 3
21 12 1
21 14 3
21 17 5
21 19 6
21 20 6
22 0 1
22 2 1
22 4 7
22 15 1
22 17 7
22 18 7
22 19 2
23 0 4
23 2 7
23 4 3
23 6 4
23 7 6
23 8 3
23 9 3
23 10 2
23 11 3
23 13 4
23 14 5
23 21 1
24 0 7
24 3 8
24 4 7
24 6 8
24 8 1
24 10 3
24 18 8
24 20 5
25 0 4
25 2 7
25 4 8
25 7 6
25 16 7
25 17 5
25 18 5
25 20 2
25 21 3
25 22 1
26 0 1
26 4 4
26 5 6
26 6 2
26 7 3
26 8 3
26 10 2
26 16 4
26 17 8
26 18 5
26 20 8
26 21 3
26 22 6
26 24 2
26 25 8
27 4 8
27 5 1
27 6 8
27 7 2
27 9 8
27 13 1
27 14 1
27 19 6
27 20 4
27 23 4
27 26 3
28 2 2
28 3 8
28 7 1
28 10 4
28 12 2
28 13 5
28 16 2
28 17 2
28 18 7
28 19 4
28 21 1
28 24 2
28 26 8
29 1 3
29 3 8
29 6 6
29 8 5
29 11 7
29 12 7
29 15 6
29 20 2
29 21 2
29 24 5
29 25 5
29 27 4
29 28 6
30 1 2
30 2 8
30 4 6
30 5 7
30 6 4
30 9 2
30 14 8
30 17 1
30 19 6
30 21 8
30 23 6
30 24 1
30 26 2
30 27 8
30 28 5
30 29 2
31 0 3
31 1 5
31 2 2
31 3 7
31 4 1
31 6 3
31 7 7
31 8 2
31 14 8
31 15 5
31 16 6
31 18 8
31 19 6
31 20 8
31 21 7
31 22 1
32 0 8
32 1 4
32 2 7
32 4 8
32 7 7
32 10 3
32 11 7
32 12 2
32 13 4
32 21 1
32 22 1
32 24 3
32 27 6
32 28 7
32 30 8
33 1 8
33 5 7
33 6 1
33 7 5
33 8 2
33 11 2
33 12 2
33 13 7
33 14 1
33 15 8
33 16 4
33 17 4
33 20 6
33 22 5
33 23 4
33 24 1
33 26 1
33 27 7
33 28 5
33 29 3
33 30 6
33 32 8
34 0 7
34 1 5
34 2 8
34 8 2
34 9 7
34 14 4
34 15 3
34 16 3
34 19 1
34 20 5
34 22 6
34 23 3
34 24 6
34 26 8
34 28 7
34 29 2
34 31 1
34 33 1
35 0 6
35 1 1
35 2 2
35 3 7
35 4 1
35 6 3
35 9 8
35 10 2
35 12 2
35 14 4
35 16 6
35 17 1
35 18 1
35 24 2
35 26 1
35 27 1
35 28 7
35 32 8
35 34 2
36 2 1
36 3 1
36 5 1
36 8 1
36 9 5
36 13 4
36 17 7
36 19 2
36 21 8
36 23 6
36 24 6
36 25 6
36 26 7
36 27 1
36 29 6
36 30 5
36 32 4
36 33 4
36 35 1
37 0 4
37 4 2
37 5 7
37 6 4
37 8 6
37 10 3
37 11 7
37 12 4
37 15 6
37 16 4
37 20 1
37 21 4
37 22 3
37 27 4
37 29 6
37 31 2
37 33 1
37 35 1
37 36 7
38 0 4
38 2 4
38 3 5
38 10 6
38 12 4
38 15 1
38 19 6
38 20 7
38 24 8
38 26 2
38 27 8
38 28 7
38 31 6
38 33 8
38 34 8
38 36 8
39 0 3
39 1 4
39 3 1
39 5 8
39 6 7
39 7 6
39 8 5
39 10 4
39 13 6
39 14 7
39 17 6
39 19 8
39 21 1
39 22 7
39 23 7
39 28 4
39 29 7
39 31 2
39 32 5
39 37 7
40 1 6
40 2 3
40 3 6
40 4 7
40 5 7
40 7 1
40 9 7
40 12 6
40 13 3
40 15 7
40 17 1
40 18 1
40 19 5
40 20 6
40 22 4
40 23 3
40 24 4
40 25 4
40 26 5
40 28 1
40 29 2
40 31 5
40 32 6
40 33 3
40 34 7
40 37 6
41 0 5
41 1 5
41 2 3
41 3 6
41 5 7
41 6 6
41 7 6
41 8 6
41 9 3
41 10 6
41 12 8
41 15 8
41 19 8
41 20 3
41 23 3
41 24 3
41 25 4
41 28 5
41 30 3
41 34 6
41 35 6
41 36 1
42 0 1
42 1 3
42 3 5
42 4 2
42 11 4
42 12 3
42 13 3
42 16 5
42 17 5
42 20 3
42 22 6
42 23 1
42 24 3
42 25 1
42 26 8
42 27 4
42 31 1
42 36 6
42 37 5
42 38 3
42 40 8
42 41 4
43 0 3
43 1 5
43 2 3
43 5 7
43 6 6
43 9 6
43 11 2
43 13 1
43 14 6
43 15 8
43 16 7
43 17 2
43 19 3
43 21 5
43 22 5
43 23 8
43 25 5
43 26 2
43 28 5
43 29 1
43 35 4
43 36 5
43 37 1
43 39 7
43 40 4
43 41 6
44 0 3
44 1 5
44 2 7
44 4 2
44 8 1
44 9 5
44 10 3
44 12 7
44 13 7
44 14 1
44 15 5
44 18 8
44 19 5
44 20 2
44 21 6
44 22 4
44 26 6
44 30 3
44 31 1
44 35 3
44 36 7
44 37 5
44 38 7
44 39 1
44 43 3
45 0 1
45 4 3
45 5 4
45 8 8
45 9 6
45 11 1
45 16 5
45 17 5
45 20 3
45 22 3
45 23 5
45 25 5
45 26 3
45 27 6
45 28 7
45 30 7
45 31 7
45 33 7
45 34 7
45 36 5
45 37 7
45 39 5
45 40 1
45 42 2
46 0 7
46 2 5
46 3 6
46 4 8
46 5 7
46 6 2
46 8 1
46 9 7
46 10 4
46 11 6
46 12 3
46 13 3
46 17 6
46 19 6
46 21 4
46 24 8
46 26 5
46 29 5
46 30 6
46 31 7
46 32 3
46 33 8
46 39 7
46 41 7
46 42 5
46 43 8
46 45 2
47 0 6
47 6 6
47 8 6
47 9 3
47 10 4
47 11 3
47 14 8
47 15 4
47 18 7
47 27 2
47 28 7
47 31 3
47 32 2
47 35 7
47 39 7
47 41 1
47 42 4
47 43 2
47 45 7
47 46 7
48 0 3
48 2 2
48 3 6
48 5 2
48 7 4
48 9 4
48 15 1
48 17 1
48 20 1
48 26 5
48 29 7
48 32 3
48 40 3
48 41 7
48 42 1
48 44 7
48 45 3
48 46 2
48 47 8
49 0 8
49 2 4
49 3 8
49 4 3
49 6 7
49 8 2
49 9 3
49 10 6
49 13 8
49 14 2
49 16 6
49 17 1
49 22 2
49 23 6
49 25 4
49 26 8
49 27 8
49 28 5
49 29 6
49 30 3
49 31 3
49 33 3
49 35 6
49 36 5
49 38 3
49 39 3
49 40 4
49 41 8
49 42 1
49 43 4
49 46 1
49 47 1
49 48 3
50 0 8
50 2 3
50 4 6
50 5 8
50 8 4
50 9 4
50 11 6
50 15 4
50 18 4
50 20 8
50 21 4
50 22 8
50 23 8
50 24 1
50 26 6
50 27 8
50 28 6
50 29 6
50 30 8
50 31 4
50 32 5
50 33 4
50 38 7
50 39 3
50 40 2
50 42 4
50 43 4
50 44 4
50 49 1
51 8 8
51 9 4
51 13 5
51 14 1
51 15 2
51 17 3
51 20 4
51 25 4
51 26 7
51 29 8
51 31 7
51 34 3
51 35 1
51 36 3
51 39 6
51 42 3
51 45 8
51 47 1
51 48 3
51 49 3
51 50 2
52 1 8
52 2 2
52 3 6
52 5 5
52 6 6
52 8 7
52 9 6
52 11 1
52 14 8
52 17 3
52 18 4
52 19 3
52 22 3
52 24 6
52 25 5
52 29 4
52 33 1
52 37 8
52 41 3
52 42 1
52 43 1
52 44 2
52 45 2
52 46 5
52 47 7
52 50 6
